c strEdges: 189  randomEdges: 441 
c degrees:  2  3 
c girth: 10 max: 8.032766  
c Hgirth mixed MAXCUT instance
c generated from an undirected graph
c to solve unweighted MaxCut
p cnf 140 1260
137 68 0
-137 -68 0
137 58 0
-137 -58 0
137 1 0
-137 -1 0
79 127 0
-79 -127 0
79 25 0
-79 -25 0
23 27 0
-23 -27 0
23 33 0
-23 -33 0
56 6 0
-56 -6 0
56 133 0
-56 -133 0
129 12 0
-129 -12 0
129 9 0
-129 -9 0
129 42 0
-129 -42 0
16 9 0
-16 -9 0
16 139 0
-16 -139 0
16 68 0
-16 -68 0
41 71 0
-41 -71 0
41 118 0
-41 -118 0
41 94 0
-41 -94 0
39 103 0
-39 -103 0
39 12 0
-39 -12 0
39 46 0
-39 -46 0
73 126 0
-73 -126 0
73 29 0
-73 -29 0
73 52 0
-73 -52 0
76 88 0
-76 -88 0
76 4 0
-76 -4 0
81 133 0
-81 -133 0
81 21 0
-81 -21 0
81 80 0
-81 -80 0
77 37 0
-77 -37 0
77 66 0
-77 -66 0
77 89 0
-77 -89 0
53 111 0
-53 -111 0
53 65 0
-53 -65 0
53 100 0
-53 -100 0
87 4 0
-87 -4 0
87 33 0
-87 -33 0
99 61 0
-99 -61 0
99 126 0
-99 -126 0
15 106 0
-15 -106 0
15 110 0
-15 -110 0
112 51 0
-112 -51 0
112 126 0
-112 -126 0
112 27 0
-112 -27 0
86 64 0
-86 -64 0
86 26 0
-86 -26 0
86 20 0
-86 -20 0
35 82 0
-35 -82 0
35 64 0
-35 -64 0
35 80 0
-35 -80 0
22 100 0
-22 -100 0
22 133 0
-22 -133 0
22 66 0
-22 -66 0
2 66 0
-2 -66 0
2 96 0
-2 -96 0
2 131 0
-2 -131 0
10 48 0
-10 -48 0
10 71 0
-10 -71 0
5 80 0
-5 -80 0
5 69 0
-5 -69 0
5 83 0
-5 -83 0
128 33 0
-128 -33 0
128 101 0
-128 -101 0
128 32 0
-128 -32 0
62 139 0
-62 -139 0
62 134 0
-62 -134 0
62 26 0
-62 -26 0
59 21 0
-59 -21 0
59 108 0
-59 -108 0
121 58 0
-121 -58 0
121 37 0
-121 -37 0
70 108 0
-70 -108 0
70 8 0
-70 -8 0
70 89 0
-70 -89 0
138 78 0
-138 -78 0
138 69 0
-138 -69 0
138 136 0
-138 -136 0
125 1 0
-125 -1 0
125 45 0
-125 -45 0
125 7 0
-125 -7 0
31 8 0
-31 -8 0
31 25 0
-31 -25 0
122 36 0
-122 -36 0
122 50 0
-122 -50 0
122 103 0
-122 -103 0
102 19 0
-102 -19 0
102 85 0
-102 -85 0
102 7 0
-102 -7 0
132 131 0
-132 -131 0
132 105 0
-132 -105 0
132 119 0
-132 -119 0
130 50 0
-130 -50 0
130 6 0
-130 -6 0
130 45 0
-130 -45 0
44 140 0
-44 -140 0
44 108 0
-44 -108 0
44 110 0
-44 -110 0
117 54 0
-117 -54 0
117 46 0
-117 -46 0
117 57 0
-117 -57 0
43 29 0
-43 -29 0
43 106 0
-43 -106 0
43 100 0
-43 -100 0
3 83 0
-3 -83 0
3 27 0
-3 -27 0
3 71 0
-3 -71 0
95 113 0
-95 -113 0
95 6 0
-95 -6 0
107 89 0
-107 -89 0
107 19 0
-107 -19 0
107 51 0
-107 -51 0
124 25 0
-124 -25 0
124 54 0
-124 -54 0
124 119 0
-124 -119 0
72 115 0
-72 -115 0
72 34 0
-72 -34 0
72 127 0
-72 -127 0
104 136 0
-104 -136 0
104 140 0
-104 -140 0
104 12 0
-104 -12 0
30 46 0
-30 -46 0
30 19 0
-30 -19 0
28 75 0
-28 -75 0
28 8 0
-28 -8 0
28 90 0
-28 -90 0
92 134 0
-92 -134 0
92 61 0
-92 -61 0
92 136 0
-92 -136 0
97 118 0
-97 -118 0
97 131 0
-97 -131 0
97 50 0
-97 -50 0
116 42 0
-116 -42 0
116 24 0
-116 -24 0
109 110 0
-109 -110 0
109 20 0
-109 -20 0
109 94 0
-109 -94 0
67 96 0
-67 -96 0
67 78 0
-67 -78 0
67 75 0
-67 -75 0
60 7 0
-60 -7 0
60 106 0
-60 -106 0
60 24 0
-60 -24 0
91 26 0
-91 -26 0
91 88 0
-91 -88 0
91 34 0
-91 -34 0
18 24 0
-18 -24 0
18 115 0
-18 -115 0
18 32 0
-18 -32 0
98 32 0
-98 -32 0
98 111 0
-98 -111 0
98 113 0
-98 -113 0
84 94 0
-84 -94 0
84 135 0
-84 -135 0
84 58 0
-84 -58 0
123 119 0
-123 -119 0
123 52 0
-123 -52 0
123 113 0
-123 -113 0
38 90 0
-38 -90 0
38 61 0
-38 -61 0
38 111 0
-38 -111 0
93 45 0
-93 -45 0
93 75 0
-93 -75 0
93 48 0
-93 -48 0
47 63 0
-47 -63 0
55 20 0
-55 -20 0
55 63 0
-55 -63 0
40 135 0
-40 -135 0
40 36 0
-40 -36 0
40 101 0
-40 -101 0
114 69 0
-114 -69 0
114 127 0
-114 -127 0
74 34 0
-74 -34 0
74 37 0
-74 -37 0
49 65 0
-49 -65 0
49 57 0
-49 -57 0
49 63 0
-49 -63 0
120 52 0
-120 -52 0
120 88 0
-120 -88 0
120 78 0
-120 -78 0
14 101 0
-14 -101 0
14 96 0
-14 -96 0
11 105 0
-11 -105 0
11 42 0
-11 -42 0
11 82 0
-11 -82 0
17 85 0
-17 -85 0
17 4 0
-17 -4 0
17 21 0
-17 -21 0
13 57 0
-13 -57 0
13 83 0
-13 -83 0
5 109 0
-5 -109 0
68 101 0
-68 -101 0
74 110 0
-74 -110 0
68 36 0
-68 -36 0
27 24 0
-27 -24 0
3 24 0
-3 -24 0
35 57 0
-35 -57 0
28 33 0
-28 -33 0
13 127 0
-13 -127 0
72 108 0
-72 -108 0
68 51 0
-68 -51 0
82 50 0
-82 -50 0
111 21 0
-111 -21 0
47 36 0
-47 -36 0
35 97 0
-35 -97 0
9 71 0
-9 -71 0
98 49 0
-98 -49 0
129 106 0
-129 -106 0
55 34 0
-55 -34 0
18 12 0
-18 -12 0
109 93 0
-109 -93 0
112 52 0
-112 -52 0
116 69 0
-116 -69 0
107 4 0
-107 -4 0
11 90 0
-11 -90 0
67 127 0
-67 -127 0
87 114 0
-87 -114 0
5 106 0
-5 -106 0
55 19 0
-55 -19 0
76 126 0
-76 -126 0
82 100 0
-82 -100 0
72 82 0
-72 -82 0
36 134 0
-36 -134 0
58 25 0
-58 -25 0
60 36 0
-60 -36 0
86 13 0
-86 -13 0
80 140 0
-80 -140 0
60 139 0
-60 -139 0
66 113 0
-66 -113 0
35 92 0
-35 -92 0
95 61 0
-95 -61 0
47 108 0
-47 -108 0
81 71 0
-81 -71 0
15 60 0
-15 -60 0
14 34 0
-14 -34 0
38 71 0
-38 -71 0
10 102 0
-10 -102 0
74 133 0
-74 -133 0
70 14 0
-70 -14 0
16 105 0
-16 -105 0
125 106 0
-125 -106 0
108 83 0
-108 -83 0
91 58 0
-91 -58 0
31 94 0
-31 -94 0
16 30 0
-16 -30 0
6 110 0
-6 -110 0
62 30 0
-62 -30 0
39 8 0
-39 -8 0
112 63 0
-112 -63 0
13 20 0
-13 -20 0
128 57 0
-128 -57 0
129 118 0
-129 -118 0
129 134 0
-129 -134 0
2 82 0
-2 -82 0
31 113 0
-31 -113 0
114 1 0
-114 -1 0
139 78 0
-139 -78 0
66 101 0
-66 -101 0
41 59 0
-41 -59 0
10 63 0
-10 -63 0
17 100 0
-17 -100 0
25 119 0
-25 -119 0
72 29 0
-72 -29 0
55 66 0
-55 -66 0
47 54 0
-47 -54 0
56 49 0
-56 -49 0
103 135 0
-103 -135 0
15 117 0
-15 -117 0
116 18 0
-116 -18 0
71 90 0
-71 -90 0
87 22 0
-87 -22 0
76 86 0
-76 -86 0
41 33 0
-41 -33 0
72 8 0
-72 -8 0
122 37 0
-122 -37 0
62 24 0
-62 -24 0
87 96 0
-87 -96 0
44 126 0
-44 -126 0
33 46 0
-33 -46 0
16 124 0
-16 -124 0
130 104 0
-130 -104 0
120 115 0
-120 -115 0
120 63 0
-120 -63 0
3 85 0
-3 -85 0
93 83 0
-93 -83 0
51 140 0
-51 -140 0
72 118 0
-72 -118 0
36 136 0
-36 -136 0
132 106 0
-132 -106 0
3 32 0
-3 -32 0
118 20 0
-118 -20 0
12 105 0
-12 -105 0
31 32 0
-31 -32 0
112 136 0
-112 -136 0
72 25 0
-72 -25 0
82 96 0
-82 -96 0
17 48 0
-17 -48 0
129 10 0
-129 -10 0
117 68 0
-117 -68 0
103 63 0
-103 -63 0
27 63 0
-27 -63 0
116 90 0
-116 -90 0
51 69 0
-51 -69 0
64 25 0
-64 -25 0
40 140 0
-40 -140 0
6 94 0
-6 -94 0
104 61 0
-104 -61 0
68 119 0
-68 -119 0
121 124 0
-121 -124 0
86 70 0
-86 -70 0
91 38 0
-91 -38 0
136 26 0
-136 -26 0
5 117 0
-5 -117 0
100 25 0
-100 -25 0
35 126 0
-35 -126 0
72 36 0
-72 -36 0
10 75 0
-10 -75 0
128 113 0
-128 -113 0
124 49 0
-124 -49 0
112 69 0
-112 -69 0
123 20 0
-123 -20 0
134 69 0
-134 -69 0
104 14 0
-104 -14 0
121 30 0
-121 -30 0
86 29 0
-86 -29 0
112 43 0
-112 -43 0
129 6 0
-129 -6 0
51 65 0
-51 -65 0
100 108 0
-100 -108 0
111 8 0
-111 -8 0
104 60 0
-104 -60 0
107 57 0
-107 -57 0
43 82 0
-43 -82 0
28 78 0
-28 -78 0
4 21 0
-4 -21 0
72 49 0
-72 -49 0
137 22 0
-137 -22 0
130 100 0
-130 -100 0
122 85 0
-122 -85 0
123 27 0
-123 -27 0
103 7 0
-103 -7 0
116 108 0
-116 -108 0
104 54 0
-104 -54 0
61 80 0
-61 -80 0
55 13 0
-55 -13 0
25 24 0
-25 -24 0
60 93 0
-60 -93 0
23 85 0
-23 -85 0
22 114 0
-22 -114 0
82 8 0
-82 -8 0
99 3 0
-99 -3 0
78 83 0
-78 -83 0
95 98 0
-95 -98 0
39 92 0
-39 -92 0
138 58 0
-138 -58 0
44 37 0
-44 -37 0
120 100 0
-120 -100 0
35 101 0
-35 -101 0
88 33 0
-88 -33 0
18 106 0
-18 -106 0
47 131 0
-47 -131 0
49 119 0
-49 -119 0
77 61 0
-77 -61 0
99 108 0
-99 -108 0
130 88 0
-130 -88 0
47 85 0
-47 -85 0
24 135 0
-24 -135 0
18 45 0
-18 -45 0
73 13 0
-73 -13 0
68 103 0
-68 -103 0
29 20 0
-29 -20 0
93 118 0
-93 -118 0
35 1 0
-35 -1 0
83 34 0
-83 -34 0
86 34 0
-86 -34 0
18 14 0
-18 -14 0
119 65 0
-119 -65 0
55 12 0
-55 -12 0
5 32 0
-5 -32 0
39 120 0
-39 -120 0
62 83 0
-62 -83 0
73 103 0
-73 -103 0
74 48 0
-74 -48 0
67 20 0
-67 -20 0
86 67 0
-86 -67 0
93 105 0
-93 -105 0
86 88 0
-86 -88 0
116 21 0
-116 -21 0
102 50 0
-102 -50 0
76 7 0
-76 -7 0
121 36 0
-121 -36 0
132 109 0
-132 -109 0
44 67 0
-44 -67 0
24 94 0
-24 -94 0
98 78 0
-98 -78 0
86 96 0
-86 -96 0
117 20 0
-117 -20 0
41 72 0
-41 -72 0
39 85 0
-39 -85 0
81 102 0
-81 -102 0
109 36 0
-109 -36 0
12 65 0
-12 -65 0
70 42 0
-70 -42 0
2 97 0
-2 -97 0
81 34 0
-81 -34 0
132 28 0
-132 -28 0
127 1 0
-127 -1 0
132 66 0
-132 -66 0
10 85 0
-10 -85 0
133 119 0
-133 -119 0
103 51 0
-103 -51 0
24 105 0
-24 -105 0
70 50 0
-70 -50 0
89 105 0
-89 -105 0
137 2 0
-137 -2 0
82 118 0
-82 -118 0
10 12 0
-10 -12 0
53 18 0
-53 -18 0
99 128 0
-99 -128 0
114 113 0
-114 -113 0
55 65 0
-55 -65 0
138 1 0
-138 -1 0
129 49 0
-129 -49 0
35 72 0
-35 -72 0
91 113 0
-91 -113 0
99 102 0
-99 -102 0
47 65 0
-47 -65 0
95 119 0
-95 -119 0
3 19 0
-3 -19 0
9 103 0
-9 -103 0
16 91 0
-16 -91 0
81 116 0
-81 -116 0
36 20 0
-36 -20 0
76 38 0
-76 -38 0
37 20 0
-37 -20 0
1 42 0
-1 -42 0
56 95 0
-56 -95 0
33 63 0
-33 -63 0
30 131 0
-30 -131 0
110 90 0
-110 -90 0
61 25 0
-61 -25 0
27 51 0
-27 -51 0
38 8 0
-38 -8 0
77 103 0
-77 -103 0
95 82 0
-95 -82 0
39 14 0
-39 -14 0
92 97 0
-92 -97 0
124 71 0
-124 -71 0
128 51 0
-128 -51 0
61 7 0
-61 -7 0
108 135 0
-108 -135 0
59 111 0
-59 -111 0
107 113 0
-107 -113 0
66 48 0
-66 -48 0
125 58 0
-125 -58 0
28 116 0
-28 -116 0
72 88 0
-72 -88 0
80 29 0
-80 -29 0
99 89 0
-99 -89 0
122 24 0
-122 -24 0
66 29 0
-66 -29 0
112 103 0
-112 -103 0
134 42 0
-134 -42 0
59 52 0
-59 -52 0
66 90 0
-66 -90 0
116 96 0
-116 -96 0
93 58 0
-93 -58 0
102 106 0
-102 -106 0
102 58 0
-102 -58 0
43 127 0
-43 -127 0
49 58 0
-49 -58 0
130 20 0
-130 -20 0
75 45 0
-75 -45 0
60 57 0
-60 -57 0
112 125 0
-112 -125 0
87 45 0
-87 -45 0
84 123 0
-84 -123 0
4 94 0
-4 -94 0
19 32 0
-19 -32 0
53 118 0
-53 -118 0
44 48 0
-44 -48 0
22 106 0
-22 -106 0
35 95 0
-35 -95 0
56 47 0
-56 -47 0
87 83 0
-87 -83 0
137 117 0
-137 -117 0
88 21 0
-88 -21 0
86 75 0
-86 -75 0
98 4 0
-98 -4 0
58 105 0
-58 -105 0
41 132 0
-41 -132 0
9 88 0
-9 -88 0
67 111 0
-67 -111 0
53 15 0
-53 -15 0
40 118 0
-40 -118 0
107 115 0
-107 -115 0
53 90 0
-53 -90 0
15 108 0
-15 -108 0
9 119 0
-9 -119 0
41 57 0
-41 -57 0
76 59 0
-76 -59 0
53 133 0
-53 -133 0
3 13 0
-3 -13 0
137 92 0
-137 -92 0
130 111 0
-130 -111 0
3 105 0
-3 -105 0
15 72 0
-15 -72 0
3 104 0
-3 -104 0
82 36 0
-82 -36 0
122 123 0
-122 -123 0
47 136 0
-47 -136 0
120 34 0
-120 -34 0
18 133 0
-18 -133 0
13 50 0
-13 -50 0
70 12 0
-70 -12 0
122 58 0
-122 -58 0
10 101 0
-10 -101 0
18 110 0
-18 -110 0
125 60 0
-125 -60 0
16 113 0
-16 -113 0
86 4 0
-86 -4 0
6 52 0
-6 -52 0
127 94 0
-127 -94 0
99 92 0
-99 -92 0
133 29 0
-133 -29 0
81 50 0
-81 -50 0
6 139 0
-6 -139 0
31 7 0
-31 -7 0
81 83 0
-81 -83 0
98 8 0
-98 -8 0
129 55 0
-129 -55 0
48 36 0
-48 -36 0
37 66 0
-37 -66 0
124 18 0
-124 -18 0
87 121 0
-87 -121 0
124 33 0
-124 -33 0
114 119 0
-114 -119 0
86 54 0
-86 -54 0
6 63 0
-6 -63 0
72 94 0
-72 -94 0
77 138 0
-77 -138 0
70 57 0
-70 -57 0
50 113 0
-50 -113 0
5 67 0
-5 -67 0
104 71 0
-104 -71 0
86 43 0
-86 -43 0
123 136 0
-123 -136 0
53 43 0
-53 -43 0
127 37 0
-127 -37 0
80 54 0
-80 -54 0
124 133 0
-124 -133 0
120 131 0
-120 -131 0
16 109 0
-16 -109 0
77 125 0
-77 -125 0
86 69 0
-86 -69 0
103 48 0
-103 -48 0
15 8 0
-15 -8 0
121 32 0
-121 -32 0
1 52 0
-1 -52 0
77 86 0
-77 -86 0
79 49 0
-79 -49 0
51 66 0
-51 -66 0
79 31 0
-79 -31 0
117 34 0
-117 -34 0
92 4 0
-92 -4 0
12 85 0
-12 -85 0
56 72 0
-56 -72 0
6 54 0
-6 -54 0
103 33 0
-103 -33 0
32 69 0
-32 -69 0
125 74 0
-125 -74 0
30 37 0
-30 -37 0
1 90 0
-1 -90 0
18 36 0
-18 -36 0
99 94 0
-99 -94 0
73 4 0
-73 -4 0
81 14 0
-81 -14 0
111 96 0
-111 -96 0
59 47 0
-59 -47 0
43 126 0
-43 -126 0
62 58 0
-62 -58 0
79 6 0
-79 -6 0
28 49 0
-28 -49 0
108 54 0
-108 -54 0
88 131 0
-88 -131 0
62 101 0
-62 -101 0
86 46 0
-86 -46 0
84 61 0
-84 -61 0
43 11 0
-43 -11 0
35 29 0
-35 -29 0
18 50 0
-18 -50 0
82 69 0
-82 -69 0
132 48 0
-132 -48 0
86 21 0
-86 -21 0
44 91 0
-44 -91 0
78 20 0
-78 -20 0
4 54 0
-4 -54 0
61 108 0
-61 -108 0
132 37 0
-132 -37 0
68 90 0
-68 -90 0
77 46 0
-77 -46 0
125 105 0
-125 -105 0
19 105 0
-19 -105 0
27 94 0
-27 -94 0
12 78 0
-12 -78 0
116 118 0
-116 -118 0
9 63 0
-9 -63 0
39 130 0
-39 -130 0
27 65 0
-27 -65 0
129 108 0
-129 -108 0
35 105 0
-35 -105 0
5 57 0
-5 -57 0
77 32 0
-77 -32 0
108 34 0
-108 -34 0
121 131 0
-121 -131 0
106 21 0
-106 -21 0
124 83 0
-124 -83 0
41 90 0
-41 -90 0
41 69 0
-41 -69 0
70 1 0
-70 -1 0
99 14 0
-99 -14 0
14 118 0
-14 -118 0
122 130 0
-122 -130 0
62 70 0
-62 -70 0
110 34 0
-110 -34 0
78 101 0
-78 -101 0
132 107 0
-132 -107 0
93 7 0
-93 -7 0
80 52 0
-80 -52 0
137 105 0
-137 -105 0
41 68 0
-41 -68 0
